1000
100 100
1 70 607
2 70 163
3 70 470
4 70 342
5 70 869
6 70 849
7 70 550
8 70 823
9 70 808
10 70 608
11 70 390
12 70 707
13 70 643
14 70 522
15 70 79
16 70 355
17 70 580
18 70 405
19 70 456
20 70 476
21 70 776
22 70 372
23 70 661
24 69 237
25 69 122
26 69 107
27 69 972
28 69 10
29 69 810
30 69 494
31 69 367
32 69 170
33 69 808
34 69 129
35 69 51
36 69 167
37 69 173
38 69 23
39 69 462
40 69 162
41 69 239
42 68 912
43 68 17
44 68 827
45 68 839
46 68 555
47 68 553
48 68 555
49 68 934
50 68 968
51 68 669
52 68 735
53 68 446
54 68 588
55 68 150
56 68 842
57 68 230
58 68 700
59 68 219
60 68 454
61 68 939
62 67 979
63 67 720
64 67 41
65 67 482
66 67 135
67 67 223
68 67 322
69 67 183
70 67 688
71 67 330
72 67 343
73 67 121
74 67 307
75 67 264
76 67 715
77 67 547
78 67 851
79 67 233
80 67 761
81 67 263
82 67 557
83 67 596
84 67 479
85 67 612
86 67 282
87 67 323
88 67 88
89 67 602
90 66 257
91 66 90
92 66 40
93 66 543
94 66 480
95 66 761
96 66 429
97 66 588
98 66 349
99 66 151
100 66 398
101 66 232
102 66 642
103 66 844
104 66 802
105 66 472
106 66 280
107 66 545
108 66 980
109 66 55
110 66 216
111 65 15
112 65 44
113 65 582
114 65 116
115 65 831
116 65 871
117 65 111
118 65 947
119 65 370
120 65 303
121 65 486
122 65 519
123 65 668
124 65 302
125 64 928
126 64 554
127 64 960
128 64 942
129 64 275
130 64 649
131 64 777
132 64 27
133 64 402
134 64 5
135 64 653
136 64 557
137 64 121
138 64 585
139 64 130
140 64 296
141 64 515
142 63 884
143 63 275
144 63 428
145 63 399
146 63 734
147 63 934
148 63 834
149 63 5
150 63 136
151 63 1
152 63 827
153 63 522
154 63 227
155 63 570
156 63 745
157 63 382
158 63 198
159 62 913
160 62 903
161 62 285
162 62 772
163 62 702
164 62 930
165 62 450
166 62 87
167 62 166
168 62 979
169 62 481
170 62 847
171 62 171
172 62 324
173 62 102
174 62 13
175 62 51
176 62 494
177 62 833
178 62 226
179 61 494
180 61 480
181 61 173
182 61 194
183 61 147
184 61 400
185 61 592
186 61 639
187 61 155
188 61 97
189 61 636
190 61 319
191 61 657
192 61 370
193 61 101
194 61 58
195 61 540
196 61 420
197 61 97
198 60 551
199 60 861
200 60 889
201 60 291
202 60 375
203 60 699
204 60 332
205 60 458
206 60 195
207 60 104
208 60 568
209 60 473
210 60 538
211 60 844
212 60 3
213 60 111
214 60 375
215 60 286
216 60 119
217 59 700
218 59 132
219 59 577
220 59 519
221 59 159
222 59 704
223 59 734
224 59 233
225 59 440
226 59 191
227 59 383
228 59 502
229 59 476
230 59 58
231 59 523
232 59 954
233 58 270
234 58 803
235 58 781
236 58 31
237 58 18
238 58 99
239 58 169
240 58 210
241 58 339
242 58 941
243 58 6
244 58 738
245 58 487
246 58 309
247 58 839
248 58 521
249 58 989
250 58 644
251 57 989
252 57 734
253 57 70
254 57 494
255 57 658
256 57 543
257 57 571
258 57 92
259 57 151
260 57 580
261 57 414
262 57 846
263 57 817
264 57 7
265 57 449
266 57 833
267 57 53
268 57 332
269 57 871
270 57 235
271 57 583
272 57 36
273 57 638
274 57 891
275 57 933
276 57 182
277 57 995
278 57 814
279 57 568
280 57 943
281 57 826
282 56 223
283 56 895
284 56 632
285 56 489
286 56 31
287 56 869
288 56 395
289 56 491
290 56 366
291 56 541
292 56 294
293 56 237
294 56 597
295 56 317
296 56 7
297 56 76
298 56 528
299 55 732
300 55 444
301 55 638
302 55 845
303 55 563
304 55 983
305 55 771
306 55 943
307 55 507
308 55 171
309 54 245
310 54 369
311 54 264
312 54 309
313 54 186
314 54 777
315 54 164
316 54 16
317 54 885
318 54 197
319 54 684
320 54 845
321 54 254
322 54 342
323 54 528
324 54 187
325 54 504
326 54 238
327 54 332
328 54 892
329 54 191
330 54 780
331 54 744
332 53 74
333 53 934
334 53 714
335 53 764
336 53 718
337 53 133
338 53 679
339 53 121
340 53 512
341 53 171
342 53 404
343 53 566
344 53 865
345 53 188
346 53 640
347 53 554
348 52 893
349 52 313
350 52 347
351 52 674
352 52 492
353 52 500
354 52 911
355 52 985
356 52 24
357 52 307
358 52 632
359 52 442
360 52 997
361 52 957
362 52 865
363 52 93
364 52 227
365 52 272
366 52 375
367 52 778
368 52 642
369 51 287
370 51 709
371 51 900
372 51 507
373 51 302
374 51 7
375 51 657
376 51 939
377 51 27
378 51 473
379 51 635
380 51 884
381 51 931
382 51 237
383 51 273
384 51 958
385 51 106
386 51 190
387 51 227
388 51 134
389 51 816
390 51 599
391 51 14
392 50 605
393 50 492
394 50 945
395 50 55
396 50 768
397 50 396
398 50 44
399 50 994
400 50 730
401 50 191
402 50 748
403 50 826
404 50 634
405 50 18
406 50 298
407 50 637
408 50 455
409 50 512
410 50 214
411 50 869
412 50 48
413 49 106
414 49 119
415 49 885
416 49 291
417 49 398
418 49 262
419 49 815
420 49 321
421 49 154
422 49 667
423 49 310
424 49 392
425 49 926
426 49 979
427 49 491
428 49 681
429 49 654
430 49 18
431 48 630
432 48 560
433 48 468
434 48 153
435 48 954
436 48 636
437 48 463
438 48 530
439 48 166
440 48 499
441 48 462
442 48 563
443 48 451
444 48 21
445 48 545
446 48 201
447 48 110
448 48 413
449 48 573
450 48 268
451 48 842
452 48 319
453 47 423
454 47 503
455 47 732
456 47 417
457 47 352
458 47 397
459 47 231
460 47 194
461 47 213
462 47 493
463 47 6
464 47 188
465 47 301
466 47 790
467 47 99
468 47 118
469 47 28
470 47 427
471 47 203
472 47 280
473 47 32
474 46 131
475 46 349
476 46 114
477 46 487
478 46 987
479 46 345
480 46 872
481 46 847
482 46 785
483 46 165
484 46 97
485 46 529
486 46 814
487 46 929
488 45 8
489 45 189
490 45 705
491 45 913
492 45 896
493 45 209
494 45 21
495 45 139
496 45 611
497 45 662
498 45 955
499 45 818
500 45 385
501 45 841
502 45 913
503 45 603
504 45 380
505 45 502
506 45 623
507 45 820
508 45 971
509 45 16
510 45 712
511 45 999
512 45 735
513 44 879
514 44 732
515 44 24
516 44 498
517 44 734
518 44 262
519 44 855
520 44 627
521 44 430
522 44 609
523 44 502
524 44 509
525 44 628
526 44 607
527 44 918
528 44 485
529 43 57
530 43 883
531 43 77
532 43 955
533 43 209
534 43 366
535 43 179
536 43 194
537 43 214
538 43 828
539 43 976
540 43 117
541 43 50
542 43 998
543 43 285
544 43 678
545 43 489
546 43 524
547 43 499
548 43 890
549 43 631
550 43 208
551 43 670
552 42 558
553 42 968
554 42 725
555 42 242
556 42 134
557 42 374
558 42 616
559 42 798
560 42 245
561 42 259
562 42 966
563 42 655
564 42 503
565 42 879
566 42 263
567 42 276
568 41 585
569 41 211
570 41 25
571 41 710
572 41 772
573 41 818
574 41 810
575 41 601
576 41 260
577 41 160
578 41 137
579 41 387
580 41 280
581 41 987
582 40 622
583 40 497
584 40 51
585 40 400
586 40 249
587 40 731
588 40 980
589 40 836
590 40 428
591 40 187
592 40 461
593 40 305
594 40 792
595 40 682
596 40 658
597 40 767
598 40 955
599 40 989
600 40 599
601 40 995
602 40 267
603 39 206
604 39 540
605 39 152
606 39 900
607 39 474
608 39 891
609 39 850
610 39 557
611 39 195
612 39 122
613 39 942
614 39 654
615 39 10
616 39 552
617 39 101
618 38 915
619 38 821
620 38 933
621 38 644
622 38 142
623 38 601
624 38 901
625 38 658
626 38 470
627 38 314
628 38 715
629 38 527
630 38 704
631 38 810
632 38 140
633 38 598
634 38 307
635 38 303
636 38 124
637 37 326
638 37 662
639 37 355
640 37 897
641 37 447
642 37 262
643 37 530
644 37 676
645 37 296
646 37 375
647 37 579
648 37 480
649 37 18
650 37 228
651 37 20
652 37 344
653 37 459
654 37 335
655 37 78
656 37 206
657 37 964
658 37 835
659 36 256
660 36 449
661 36 713
662 36 508
663 36 88
664 36 555
665 36 563
666 36 560
667 36 19
668 36 400
669 36 351
670 36 95
671 36 357
672 36 19
673 36 851
674 36 215
675 36 989
676 36 436
677 36 871
678 36 627
679 36 718
680 36 231
681 36 923
682 36 228
683 36 361
684 36 415
685 35 237
686 35 755
687 35 301
688 35 706
689 35 735
690 35 124
691 35 173
692 35 267
693 35 144
694 35 949
695 35 978
696 35 377
697 35 975
698 35 264
699 35 527
700 35 373
701 35 975
702 35 762
703 34 70
704 34 437
705 34 381
706 34 292
707 34 233
708 34 18
709 34 838
710 34 888
711 34 521
712 34 191
713 34 643
714 34 805
715 34 270
716 34 298
717 34 56
718 34 653
719 34 658
720 34 63
721 34 73
722 34 587
723 34 339
724 34 403
725 34 571
726 34 944
727 34 379
728 34 522
729 34 178
730 33 80
731 33 724
732 33 535
733 33 190
734 33 617
735 33 589
736 33 672
737 33 128
738 33 674
739 33 423
740 33 401
741 33 940
742 33 463
743 33 485
744 33 742
745 33 105
746 33 934
747 33 396
748 33 331
749 33 720
750 33 991
751 32 912
752 32 272
753 32 768
754 32 209
755 32 116
756 32 570
757 32 344
758 32 387
759 32 299
760 32 271
761 32 133
762 32 78
763 32 815
764 32 117
765 32 289
766 32 402
767 32 848
768 31 231
769 31 887
770 31 91
771 31 616
772 31 356
773 31 838
774 31 925
775 31 510
776 31 818
777 31 849
778 31 890
779 31 500
780 31 836
781 31 167
782 31 506
783 31 943
784 31 802
785 31 875
786 31 114
787 31 661
788 30 876
789 30 252
790 30 730
791 30 711
792 30 878
793 30 883
794 30 347
795 30 181
796 30 861
797 30 750
798 30 786
799 30 172
800 30 606
801 30 5
802 30 50
803 30 996
804 30 812
805 30 240
806 29 979
807 29 140
808 29 236
809 29 415
810 29 270
811 29 853
812 29 899
813 29 20
814 29 541
815 29 684
816 29 917
817 28 4
818 28 39
819 28 86
820 28 826
821 28 905
822 28 497
823 28 950
824 28 996
825 28 775
826 28 559
827 28 257
828 28 746
829 28 688
830 28 36
831 28 737
832 28 787
833 28 448
834 28 945
835 28 123
836 28 159
837 27 737
838 27 809
839 27 591
840 27 644
841 27 214
842 27 383
843 27 365
844 27 323
845 27 400
846 27 640
847 27 538
848 27 791
849 27 869
850 27 976
851 27 194
852 27 682
853 27 920
854 27 446
855 27 429
856 27 457
857 27 573
858 27 387
859 27 311
860 27 366
861 27 121
862 26 359
863 26 118
864 26 551
865 26 429
866 26 329
867 26 487
868 26 224
869 26 63
870 26 522
871 26 765
872 26 491
873 26 699
874 26 120
875 26 88
876 26 441
877 26 377
878 26 974
879 26 829
880 26 346
881 26 220
882 25 21
883 25 258
884 25 56
885 25 783
886 25 19
887 25 826
888 25 699
889 25 768
890 25 289
891 25 132
892 25 862
893 25 462
894 25 171
895 25 21
896 25 446
897 25 690
898 25 415
899 25 956
900 25 850
901 25 307
902 25 892
903 25 487
904 25 81
905 25 63
906 25 791
907 25 958
908 25 198
909 25 647
910 24 566
911 24 47
912 24 49
913 24 882
914 24 679
915 24 386
916 24 404
917 24 620
918 24 853
919 24 17
920 24 52
921 24 653
922 23 660
923 23 57
924 23 747
925 23 529
926 23 317
927 23 218
928 23 106
929 23 315
930 23 602
931 23 264
932 23 700
933 23 515
934 23 302
935 22 717
936 22 12
937 22 304
938 22 331
939 22 967
940 22 296
941 22 840
942 22 544
943 22 367
944 22 459
945 22 576
946 22 734
947 22 654
948 22 95
949 22 92
950 22 977
951 22 320
952 22 599
953 22 488
954 22 688
955 22 941
956 22 810
957 22 143
958 22 860
959 21 23
960 21 36
961 21 518
962 21 918
963 21 717
964 21 86
965 21 47
966 21 472
967 21 706
968 21 283
969 21 753
970 21 879
971 21 55
972 21 420
973 21 650
974 21 924
975 21 215
976 21 968
977 21 489
978 21 733
979 21 793
980 21 239
981 20 355
982 20 885
983 20 539
984 20 436
985 20 276
986 20 241
987 20 667
988 20 639
989 20 395
990 20 700
991 20 49
992 20 139
993 20 347
994 20 550
995 20 405
996 20 641
997 20 385
998 20 391
999 20 400
1000 20 14
